Route 1: 131 163 28 153 47 63 149 42 172 197 122 181 5 62 164 35 104 10 25 170 130 138 186 135 77 144 137 121 123 115 11 13 8 34 96 193 19 141 60 1 185 75 30 97 64
Route 2: 54 174 140 37 12 199 84 155 118 127 105 69 26 20 46 159 176 58 113 191 134 192 71 87 88 17 120 79 73 2 76 103 146 93 39 83 200 162 175
Route 3: 100 4 142 92 48 156 24 6 49 14 124 36 43 180 3 132 171 78 184 136 72 187 150 21 195 119 22 90 44 18 179 16 41 154 102 178 110 107 158 81 9 66 139 82 89 157 67
Route 4: 152 57 182 161 7 15 68 196 183 59 143 188 29 99 94 33 23 112 160 109 65 125 189 177 173 166 74 101 50 194 126
Route 5: 167 40 133 169 147 190 98 61 91 116 148 51 111 27 198 95 80 145 55 70
Route 6: 31 85 128 165 151 168 45 32 38 56 108 53 114 52 117 86 129 106
Vehicles: 6
Distance: 5081.00
